n_res = 4;
rc = [ 24, 32, 32, 23 ];
n_tasks = 30;
d = [ 4, 4, 1, 3, 5, 3, 1, 5, 3, 1, 8, 6, 5, 8, 3, 5, 2, 10, 9, 8, 4, 10, 2, 5, 10, 9, 6, 7, 4, 6 ];
rr = [| 9, 10, 8, 1, 2, 1, 4, 8, 2, 2, 3, 9, 2, 2, 5, 7, 9, 3, 1, 5, 4, 5, 7, 8, 4, 6, 1, 5, 7, 9
      | 1, 4, 9, 2, 2, 1, 10, 10, 2, 3, 3, 8, 1, 3, 8, 5, 4, 4, 10, 7, 8, 9, 7, 2, 6, 9, 1, 8, 7, 1
      | 3, 5, 9, 9, 8, 4, 9, 4, 3, 6, 1, 1, 7, 10, 3, 3, 4, 6, 3, 7, 8, 3, 10, 5, 4, 7, 10, 3, 1, 5
      | 8, 10, 10, 8, 5, 5, 4, 4, 9, 4, 10, 1, 8, 4, 2, 6, 6, 1, 3, 6, 5, 3, 10, 5, 5, 4, 8, 8, 4, 10 |];
suc = [ { 4, 16 },
       { 5, 11, 16 },
       { 8, 12, 16 },
       { 6, 13, 15 },
       { 7, 9, 10 },
       { 8, 10, 23 },
       { 12, 17, 19 },
       { 17, 22, 24 },
       { 13, 15, 20 },
       { 12, 24 },
       { 14, 18, 22 },
       { 14, 27, 30 },
       { 14, 18, 21 },
       { 28, 29 },
       { 19, 26 },
       { 17, 19, 22 },
       { 18, 20, 25 },
       { 30 },
       { 23, 25 },
       { 26, 30 },
       { 23, 24 },
       { 27 },
       { 28 },
       { 25, 26 },
       { 29 },
       { 27, 29 },
       { 28 },
       {  },
       {  },
       {  } ];
